data_global
_chemical_name_mineral 'Cordylite-(La)'
loop_
_publ_author_name
'Mills S J'
'Kartashov P M'
'Kampf A R'
'Konev A A'
'Konev A A'
'Raudsepp M'
_journal_name_full 'The Canadian Mineralogist'
_journal_volume 50 
_journal_year 2012
_journal_page_first 1281
_journal_page_last 1290
_publ_section_title
;
 Cordylite-(La), a new mineral species in fenite from the Biraya Fe-REE
 deposit, Irkutsk, Russia
 Note: crystal 1
;
_database_code_amcsd 0019703
_chemical_compound_source 'Biraya Fe-REE deposit, Irkutsk, Russia'
_chemical_formula_sum 'Ba La.78 Ce.66 Sr.44 Nd.08 Pr.02 (Na.61 Ca.39) F.89 O12.03 C4 H.03'
_cell_length_a 5.1182
_cell_length_b 5.1182
_cell_length_c 23.1785
_cell_angle_alpha 90
_cell_angle_beta 90
_cell_angle_gamma 120
_cell_volume 525.836
_exptl_crystal_density_diffrn      4.283
_symmetry_space_group_name_H-M 'P 63/m m c'
loop_
_space_group_symop_operation_xyz
  'x,y,z'
  '-x,-x+y,1/2+z'
  'x,x-y,1/2-z'
  '-x+y,-x,1/2-z'
  'x-y,x,1/2+z'
  '-y,-x,z'
  'y,x,-z'
  'y,-x+y,-z'
  '-y,x-y,z'
  'x-y,-y,1/2+z'
  '-x+y,y,1/2-z'
  'x,y,1/2-z'
  '-x,-y,1/2+z'
  'x,x-y,z'
  '-x,-x+y,-z'
  'x-y,x,-z'
  '-x+y,-x,z'
  'y,x,1/2+z'
  '-y,-x,1/2-z'
  '-y,x-y,1/2-z'
  'y,-x+y,1/2+z'
  '-x+y,y,z'
  'x-y,-y,-z'
  '-x,-y,-z'
loop_
_atom_site_label
_atom_site_fract_x
_atom_site_fract_y
_atom_site_fract_z
_atom_site_occupancy
_atom_site_U_iso_or_equiv
Ba   0.00000   0.00000   0.00000   1.00000   0.01400
La   0.33333   0.66667   0.35485   0.39000   0.00990
Ce   0.33333   0.66667   0.35485   0.33000   0.00990
Sr   0.33333   0.66667   0.35485   0.22000   0.00990
Nd   0.33333   0.66667   0.35485   0.04000   0.00990
Pr   0.33333   0.66667   0.35485   0.01000   0.00990
Na   0.33333   0.66667   0.75000   0.61000   0.01900
Ca   0.33333   0.66667   0.75000   0.39000   0.01900
F   0.33333   0.66667   0.25000   0.89000   0.04000
O-H   0.33333   0.66667   0.25000   0.03000   0.04000
C1   0.00000   0.00000   0.67880   1.00000   0.01190
C2   0.66667   0.33333   0.43410   1.00000   0.01050
O1   0.14410   0.28820   0.82290   1.00000   0.01620
O2   0.52260   0.04520   0.43493   1.00000   0.02010
loop_
_atom_site_aniso_label
_atom_site_aniso_U_11
_atom_site_aniso_U_22
_atom_site_aniso_U_33
_atom_site_aniso_U_12
_atom_site_aniso_U_13
_atom_site_aniso_U_23
Ba 0.01360 0.01360 0.01470 0.00681 0.00000 0.00000
La 0.00980 0.00980 0.01030 0.00488 0.00000 0.00000
Ce 0.00980 0.00980 0.01030 0.00488 0.00000 0.00000
Sr 0.00980 0.00980 0.01030 0.00488 0.00000 0.00000
Nd 0.00980 0.00980 0.01030 0.00488 0.00000 0.00000
Pr 0.00980 0.00980 0.01030 0.00488 0.00000 0.00000
Na 0.02290 0.02290 0.01100 0.01150 0.00000 0.00000
Ca 0.02290 0.02290 0.01100 0.01150 0.00000 0.00000
F 0.05500 0.05500 0.01000 0.02700 0.00000 0.00000
O-H 0.05500 0.05500 0.01000 0.02700 0.00000 0.00000
C1 0.01300 0.01300 0.00900 0.00660 0.00000 0.00000
C2 0.01100 0.01100 0.00900 0.00570 0.00000 0.00000
O1 0.01500 0.01200 0.02000 0.00620 -0.00020 -0.00030
O2 0.02550 0.01100 0.01880 0.00560 -0.00010 -0.00020
